jobs  (incl. supersource/sink ):	102
RESOURCES
- renewable                 : 2 R
- nonrenewable              : 2 N
- doubly constrained        : 0 D
************************************************************************
PRECEDENCE RELATIONS:
jobnr.    #modes  #successors   successors
1	1	17		2 3 4 5 6 7 8 9 10 11 14 15 17 18 19 20 23 
2	9	9		59 46 38 33 31 30 25 16 12 
3	9	17		50 48 43 41 40 39 38 37 34 33 31 30 28 27 26 25 21 
4	9	11		50 44 42 41 37 35 33 32 27 25 13 
5	9	11		59 58 40 39 37 36 35 30 28 26 12 
6	9	13		59 47 46 43 42 40 36 35 34 33 31 30 21 
7	9	12		58 52 50 44 40 39 38 37 33 30 24 22 
8	9	10		50 49 44 42 40 34 28 27 24 21 
9	9	11		62 56 54 47 46 40 37 36 29 27 22 
10	9	13		60 59 56 54 50 49 45 42 41 36 33 31 28 
11	9	12		62 59 58 49 48 42 41 39 38 32 26 25 
12	9	12		61 57 52 50 49 48 47 44 43 42 34 21 
13	9	13		62 60 59 58 53 51 49 48 45 40 36 34 28 
14	9	10		69 58 55 53 47 46 41 40 34 22 
15	9	14		69 61 60 58 56 55 52 47 46 45 42 41 40 32 
16	9	10		64 62 60 58 55 53 40 39 36 26 
17	9	10		64 55 53 52 49 45 44 43 35 26 
18	9	8		55 50 45 44 39 36 34 28 
19	9	10		75 64 60 55 54 48 46 45 36 31 
20	9	12		101 70 61 58 57 55 54 53 52 49 44 42 
21	9	12		101 75 66 64 62 60 56 55 54 53 51 45 
22	9	13		101 75 74 71 66 64 63 61 59 57 51 45 43 
23	9	11		99 80 69 68 64 61 59 57 52 47 40 
24	9	9		101 79 64 62 59 56 47 45 41 
25	9	6		101 80 69 53 45 36 
26	9	10		101 75 70 69 66 63 61 54 51 47 
27	9	9		101 75 61 60 58 57 55 53 52 
28	9	9		101 100 99 75 70 69 61 47 46 
29	9	8		101 80 59 57 53 50 48 45 
30	9	10		100 75 69 67 65 63 62 61 60 54 
31	9	10		101 99 83 77 70 65 62 61 58 53 
32	9	12		101 99 98 80 79 78 77 72 70 68 63 53 
33	9	6		77 68 63 61 55 53 
34	9	9		101 98 74 71 70 67 65 56 54 
35	9	8		101 80 79 72 70 68 57 48 
36	9	6		99 68 67 61 57 52 
37	9	9		101 100 99 69 68 67 66 65 61 
38	9	4		79 71 55 54 
39	9	14		99 98 94 82 80 79 78 77 76 74 73 72 68 66 
40	9	9		101 98 96 79 78 77 67 65 63 
41	9	7		83 82 77 70 68 67 57 
42	9	11		100 99 98 96 82 78 77 75 72 68 64 
43	9	11		100 98 97 96 83 82 79 78 72 68 65 
44	9	8		98 96 78 77 68 67 65 63 
45	9	9		99 98 96 95 78 73 70 68 67 
46	9	8		96 94 81 79 77 71 68 63 
47	9	7		98 82 77 74 71 67 65 
48	9	15		99 98 96 95 94 93 92 90 83 82 81 77 76 74 73 
49	9	8		99 83 82 77 76 72 69 68 
50	9	7		100 97 96 83 78 68 65 
51	9	11		97 96 95 94 82 81 79 77 76 72 68 
52	9	9		97 94 92 83 82 79 77 73 66 
53	9	7		100 96 95 74 73 71 67 
54	9	13		99 97 96 95 94 93 92 88 82 80 77 76 72 
55	9	6		99 98 96 93 74 65 
56	9	6		100 96 94 81 80 63 
57	9	6		100 96 93 91 78 65 
58	9	8		96 95 94 82 81 76 73 68 
59	9	10		100 95 94 92 82 81 77 76 73 72 
60	9	7		99 94 83 81 76 73 68 
61	9	9		98 96 93 81 79 78 76 73 72 
62	9	5		95 94 76 72 68 
63	9	10		95 93 91 90 89 85 83 82 76 73 
64	9	10		97 94 93 92 91 89 86 85 81 73 
65	9	9		95 94 92 90 89 85 81 76 73 
66	9	11		96 95 93 91 90 89 88 87 86 85 81 
67	9	8		97 94 93 91 90 88 81 76 
68	9	10		93 92 91 90 89 88 87 86 85 84 
69	9	6		97 96 94 92 90 79 
70	9	6		97 92 91 88 85 81 
71	9	5		92 89 86 85 84 
72	9	4		91 90 85 84 
73	9	3		88 87 84 
74	9	3		97 89 84 
75	9	3		95 89 84 
76	9	2		87 86 
77	9	2		85 84 
78	9	2		85 84 
79	9	2		85 84 
80	9	2		89 84 
81	9	1		84 
82	9	1		87 
83	9	1		86 
84	9	1		102 
85	9	1		102 
86	9	1		102 
87	9	1		102 
88	9	1		102 
89	9	1		102 
90	9	1		102 
91	9	1		102 
92	9	1		102 
93	9	1		102 
94	9	1		102 
95	9	1		102 
96	9	1		102 
97	9	1		102 
98	9	1		102 
99	9	1		102 
100	9	1		102 
101	9	1		102 
102	1	0		
************************************************************************
REQUESTS/DURATIONS
jobnr.	mode	dur	R1	R2	N1	N2	
------------------------------------------------------------------------
1	1	0	0	0	0	0	
2	1	10	4	4	25	18	
	2	12	4	3	23	17	
	3	13	4	3	22	17	
	4	14	4	2	20	17	
	5	17	4	2	17	17	
	6	18	3	2	13	17	
	7	19	3	2	10	17	
	8	20	3	1	8	17	
	9	30	3	1	7	17	
3	1	3	4	4	25	12	
	2	4	4	4	23	12	
	3	5	4	4	22	10	
	4	8	4	4	20	9	
	5	9	4	4	19	9	
	6	11	4	4	18	7	
	7	12	4	4	16	6	
	8	19	4	4	16	5	
	9	27	4	4	15	4	
4	1	9	4	5	25	21	
	2	12	4	4	24	20	
	3	15	4	3	22	19	
	4	16	4	3	21	18	
	5	21	4	2	21	17	
	6	24	4	2	19	15	
	7	28	4	1	19	14	
	8	29	4	1	17	14	
	9	30	4	1	17	12	
5	1	1	5	3	28	13	
	2	3	4	3	26	13	
	3	9	4	3	24	12	
	4	10	4	3	24	11	
	5	11	3	3	22	11	
	6	12	3	2	20	11	
	7	17	3	2	19	11	
	8	18	3	2	19	10	
	9	25	3	2	18	9	
6	1	2	1	2	16	29	
	2	7	1	2	16	25	
	3	16	1	2	16	22	
	4	17	1	2	15	19	
	5	19	1	2	15	16	
	6	22	1	2	15	15	
	7	23	1	2	15	12	
	8	24	1	2	14	8	
	9	26	1	2	14	6	
7	1	4	1	3	17	11	
	2	6	1	3	15	10	
	3	13	1	3	14	9	
	4	14	1	3	13	9	
	5	15	1	2	12	8	
	6	18	1	2	10	7	
	7	20	1	1	9	7	
	8	24	1	1	8	7	
	9	28	1	1	6	6	
8	1	4	4	4	17	6	
	2	5	3	3	14	6	
	3	8	3	3	12	6	
	4	12	2	3	10	6	
	5	15	2	3	9	6	
	6	22	2	3	7	7	
	7	23	2	3	7	6	
	8	25	1	3	3	6	
	9	28	1	3	2	6	
9	1	2	5	4	19	14	
	2	8	4	4	19	12	
	3	9	4	4	19	11	
	4	12	4	4	19	10	
	5	13	3	4	18	11	
	6	14	3	3	18	10	
	7	15	3	3	18	9	
	8	27	2	3	18	9	
	9	30	2	3	18	8	
10	1	2	3	2	24	18	
	2	3	2	1	23	17	
	3	4	2	1	20	15	
	4	6	2	1	17	15	
	5	12	2	1	14	12	
	6	13	1	1	11	12	
	7	14	1	1	11	10	
	8	16	1	1	7	9	
	9	30	1	1	6	8	
11	1	8	1	4	29	27	
	2	11	1	4	28	25	
	3	15	1	4	28	24	
	4	16	1	4	27	20	
	5	17	1	3	27	18	
	6	18	1	3	27	17	
	7	19	1	3	26	15	
	8	21	1	3	26	14	
	9	29	1	3	25	12	
12	1	2	5	2	19	21	
	2	5	4	2	18	18	
	3	13	4	2	17	18	
	4	16	4	2	16	15	
	5	17	3	2	15	15	
	6	24	3	2	13	13	
	7	25	3	2	13	11	
	8	29	3	2	12	11	
	9	30	3	2	10	8	
13	1	7	4	3	23	16	
	2	7	4	3	22	17	
	3	8	4	3	22	16	
	4	13	4	3	22	15	
	5	15	3	2	21	15	
	6	20	3	2	21	14	
	7	24	3	1	21	15	
	8	29	3	1	20	15	
	9	30	3	1	20	14	
14	1	9	4	2	25	25	
	2	13	4	2	20	23	
	3	15	4	2	19	23	
	4	18	4	2	15	21	
	5	19	4	2	15	20	
	6	20	4	2	13	18	
	7	25	4	2	10	16	
	8	26	4	2	6	15	
	9	29	4	2	4	14	
15	1	3	4	1	22	18	
	2	6	4	1	21	15	
	3	10	4	1	20	14	
	4	11	4	1	20	12	
	5	12	3	1	18	12	
	6	13	3	1	18	9	
	7	18	2	1	17	8	
	8	25	2	1	17	7	
	9	27	2	1	16	6	
16	1	2	3	5	28	15	
	2	3	3	4	25	15	
	3	4	3	4	22	14	
	4	5	3	4	21	13	
	5	6	2	3	18	13	
	6	7	2	3	16	12	
	7	8	2	3	15	12	
	8	10	2	3	10	11	
	9	13	2	3	10	10	
17	1	2	5	4	30	23	
	2	3	4	3	28	22	
	3	4	4	3	25	19	
	4	9	3	3	24	18	
	5	11	3	2	20	17	
	6	18	2	2	19	16	
	7	25	2	2	17	14	
	8	26	1	2	14	11	
	9	30	1	2	14	10	
18	1	4	5	5	27	19	
	2	9	4	4	24	16	
	3	13	4	4	19	15	
	4	14	3	4	18	14	
	5	15	2	3	14	14	
	6	17	2	3	12	13	
	7	18	2	3	9	12	
	8	19	1	2	7	11	
	9	24	1	2	5	9	
19	1	3	3	4	21	22	
	2	8	2	4	20	21	
	3	9	2	4	20	20	
	4	10	2	4	18	19	
	5	17	1	4	18	18	
	6	20	1	3	17	17	
	7	22	1	3	15	17	
	8	25	1	3	14	15	
	9	26	1	3	13	15	
20	1	8	5	4	25	9	
	2	9	4	4	23	9	
	3	10	4	4	23	8	
	4	12	4	4	21	8	
	5	15	3	3	19	7	
	6	21	3	3	18	7	
	7	22	3	3	17	6	
	8	27	3	3	15	6	
	9	28	3	3	13	6	
21	1	2	2	5	10	22	
	2	4	2	4	10	21	
	3	12	2	3	10	21	
	4	13	2	3	10	20	
	5	14	2	2	10	19	
	6	17	2	2	10	17	
	7	26	2	1	10	17	
	8	29	2	1	10	16	
	9	30	2	1	10	15	
22	1	3	3	5	27	24	
	2	5	3	5	24	23	
	3	8	3	5	23	22	
	4	9	3	5	19	21	
	5	11	3	5	18	20	
	6	13	3	5	16	20	
	7	18	3	5	13	19	
	8	26	3	5	11	18	
	9	28	3	5	10	16	
23	1	2	2	5	26	10	
	2	6	2	4	24	9	
	3	9	2	4	22	9	
	4	14	2	4	21	9	
	5	15	2	3	18	8	
	6	17	2	3	14	8	
	7	20	2	2	13	8	
	8	21	2	2	11	8	
	9	29	2	2	7	8	
24	1	2	3	4	20	23	
	2	4	3	3	18	23	
	3	5	3	3	17	23	
	4	6	3	2	15	23	
	5	9	3	2	12	22	
	6	12	3	2	10	22	
	7	15	3	2	9	22	
	8	16	3	1	7	21	
	9	23	3	1	4	21	
25	1	5	3	4	28	12	
	2	17	3	3	28	10	
	3	19	3	3	28	9	
	4	20	3	3	28	8	
	5	22	2	3	27	9	
	6	23	2	3	27	8	
	7	24	2	3	27	7	
	8	26	2	3	27	6	
	9	27	2	3	27	5	
26	1	1	3	4	24	12	
	2	2	2	4	22	12	
	3	4	2	4	22	11	
	4	8	2	3	20	12	
	5	11	2	3	20	11	
	6	12	2	3	18	11	
	7	22	2	2	16	11	
	8	26	2	2	16	10	
	9	29	2	2	14	11	
27	1	2	4	5	9	26	
	2	3	3	4	9	26	
	3	4	3	4	8	26	
	4	6	3	4	7	26	
	5	8	2	4	6	26	
	6	13	2	4	5	26	
	7	14	2	4	4	26	
	8	17	2	4	2	26	
	9	29	2	4	1	26	
28	1	2	3	2	14	24	
	2	3	3	2	12	22	
	3	4	3	2	12	21	
	4	5	2	2	12	21	
	5	8	2	2	11	20	
	6	16	2	2	10	20	
	7	25	2	2	10	19	
	8	26	1	2	9	19	
	9	29	1	2	8	18	
29	1	9	4	3	27	19	
	2	12	4	3	26	19	
	3	18	4	3	25	19	
	4	19	4	2	23	19	
	5	20	4	2	22	18	
	6	21	4	2	22	17	
	7	21	4	1	21	18	
	8	22	4	1	19	18	
	9	25	4	1	18	18	
30	1	2	5	3	19	25	
	2	9	5	2	16	25	
	3	15	5	2	13	24	
	4	16	5	2	11	23	
	5	17	5	2	9	23	
	6	23	5	2	7	22	
	7	24	5	2	5	22	
	8	27	5	2	5	20	
	9	29	5	2	2	20	
31	1	10	5	4	6	27	
	2	13	4	4	4	25	
	3	15	4	4	4	23	
	4	19	4	4	3	21	
	5	20	3	4	3	19	
	6	21	3	4	2	17	
	7	25	2	4	2	16	
	8	28	2	4	2	14	
	9	30	2	4	1	13	
32	1	11	4	2	26	24	
	2	12	4	1	25	18	
	3	13	3	1	25	18	
	4	14	3	1	25	15	
	5	17	3	1	25	13	
	6	18	2	1	24	11	
	7	21	1	1	24	7	
	8	27	1	1	24	5	
	9	28	1	1	24	2	
33	1	5	5	4	26	24	
	2	7	4	3	26	21	
	3	11	3	3	24	20	
	4	13	3	3	20	19	
	5	14	3	3	19	17	
	6	15	2	2	18	14	
	7	24	2	2	16	12	
	8	27	1	2	13	11	
	9	28	1	2	13	9	
34	1	5	4	4	21	22	
	2	8	3	4	20	19	
	3	11	3	4	18	17	
	4	12	3	4	16	15	
	5	13	3	4	12	13	
	6	14	2	3	10	10	
	7	18	2	3	10	7	
	8	20	2	3	7	7	
	9	27	2	3	5	3	
35	1	2	3	5	23	27	
	2	3	2	5	23	24	
	3	4	2	5	23	22	
	4	5	2	5	23	21	
	5	20	1	5	23	20	
	6	21	1	5	22	17	
	7	23	1	5	22	15	
	8	28	1	5	22	13	
	9	29	1	5	22	10	
36	1	7	3	4	16	18	
	2	16	3	4	16	15	
	3	17	3	4	16	14	
	4	18	3	4	16	12	
	5	20	3	4	16	11	
	6	22	3	4	15	9	
	7	25	3	4	15	8	
	8	26	3	4	15	7	
	9	27	3	4	15	6	
37	1	2	4	4	29	9	
	2	5	4	3	27	9	
	3	7	4	3	26	9	
	4	15	4	3	23	9	
	5	16	3	3	22	9	
	6	20	3	3	22	8	
	7	25	2	3	21	8	
	8	26	2	3	19	8	
	9	27	2	3	17	8	
38	1	1	3	2	21	24	
	2	9	2	2	19	22	
	3	13	2	2	19	21	
	4	14	2	2	17	22	
	5	18	2	2	16	21	
	6	19	1	2	15	20	
	7	25	1	2	14	20	
	8	26	1	2	14	19	
	9	30	1	2	13	19	
39	1	1	3	2	27	12	
	2	3	3	2	26	12	
	3	6	3	2	25	13	
	4	7	3	2	25	12	
	5	13	3	2	24	11	
	6	14	3	1	23	11	
	7	18	3	1	23	10	
	8	19	3	1	21	11	
	9	25	3	1	21	10	
40	1	3	4	4	19	17	
	2	5	3	4	17	16	
	3	6	3	4	16	12	
	4	10	3	4	13	12	
	5	16	2	4	11	8	
	6	18	2	3	9	8	
	7	24	2	3	8	6	
	8	25	1	3	5	4	
	9	26	1	3	4	2	
41	1	3	4	5	30	24	
	2	7	4	4	29	21	
	3	11	3	4	29	19	
	4	12	3	4	29	17	
	5	17	2	4	29	17	
	6	18	2	4	28	15	
	7	19	2	4	28	13	
	8	20	1	4	28	10	
	9	21	1	4	28	9	
42	1	6	5	2	10	20	
	2	8	4	2	9	18	
	3	9	4	2	9	17	
	4	11	4	2	7	17	
	5	12	4	2	7	16	
	6	21	4	2	6	16	
	7	22	4	2	4	16	
	8	24	4	2	3	15	
	9	29	4	2	3	14	
43	1	2	5	2	13	22	
	2	3	4	2	13	19	
	3	9	4	2	12	18	
	4	15	4	2	12	17	
	5	17	4	2	12	12	
	6	19	3	2	11	9	
	7	22	3	2	11	8	
	8	23	3	2	10	7	
	9	30	3	2	10	4	
44	1	1	5	4	22	26	
	2	6	4	3	21	24	
	3	8	4	3	21	23	
	4	9	3	3	20	24	
	5	13	2	2	18	23	
	6	18	2	2	17	23	
	7	26	1	2	16	22	
	8	28	1	2	15	21	
	9	29	1	2	14	21	
45	1	2	2	5	25	23	
	2	7	2	5	24	22	
	3	9	2	5	22	21	
	4	10	2	5	18	20	
	5	14	1	5	17	20	
	6	17	1	5	17	18	
	7	23	1	5	13	17	
	8	25	1	5	13	16	
	9	28	1	5	11	16	
46	1	4	2	4	28	6	
	2	16	2	3	27	5	
	3	19	2	3	24	5	
	4	20	2	3	24	4	
	5	22	1	2	21	5	
	6	23	1	2	20	4	
	7	24	1	2	16	4	
	8	28	1	2	14	4	
	9	29	1	2	13	4	
47	1	10	5	4	16	27	
	2	12	5	4	14	27	
	3	17	5	4	13	27	
	4	20	5	3	12	27	
	5	21	5	3	12	26	
	6	22	5	3	10	26	
	7	25	5	2	10	26	
	8	26	5	2	9	26	
	9	29	5	2	8	26	
48	1	3	4	4	26	24	
	2	7	4	3	22	23	
	3	8	4	3	20	22	
	4	9	4	3	17	20	
	5	11	4	2	15	18	
	6	21	4	2	10	17	
	7	22	4	2	8	16	
	8	23	4	2	7	14	
	9	26	4	2	5	13	
49	1	1	2	4	29	23	
	2	4	2	3	28	23	
	3	7	2	3	27	22	
	4	8	2	3	25	21	
	5	9	2	2	25	20	
	6	17	2	2	24	19	
	7	21	2	2	23	18	
	8	22	2	1	23	17	
	9	24	2	1	22	15	
50	1	1	2	3	2	23	
	2	6	2	2	2	20	
	3	8	2	2	2	18	
	4	9	2	2	2	15	
	5	13	2	2	2	14	
	6	20	2	2	2	12	
	7	21	2	2	2	10	
	8	25	2	2	2	6	
	9	26	2	2	2	4	
51	1	1	5	5	14	9	
	2	3	5	4	13	7	
	3	4	5	4	13	6	
	4	13	5	3	12	6	
	5	17	5	3	10	5	
	6	22	5	3	9	4	
	7	27	5	3	9	3	
	8	28	5	2	7	2	
	9	29	5	2	6	2	
52	1	2	2	5	23	16	
	2	4	2	4	23	16	
	3	5	2	4	23	15	
	4	6	2	4	22	16	
	5	11	2	4	22	15	
	6	13	2	3	21	16	
	7	24	2	3	20	16	
	8	28	2	3	20	15	
	9	29	2	3	20	14	
53	1	3	5	1	17	16	
	2	7	5	1	17	12	
	3	14	5	1	16	12	
	4	16	5	1	15	10	
	5	18	5	1	15	8	
	6	20	5	1	14	6	
	7	22	5	1	14	5	
	8	23	5	1	13	4	
	9	30	5	1	13	1	
54	1	3	4	3	28	25	
	2	8	4	3	26	25	
	3	17	4	3	26	24	
	4	18	4	3	25	22	
	5	19	4	2	24	22	
	6	20	3	2	24	21	
	7	23	3	2	23	20	
	8	25	3	2	22	20	
	9	28	3	2	21	19	
55	1	5	5	3	25	12	
	2	6	5	3	21	9	
	3	9	5	3	20	8	
	4	17	5	3	18	7	
	5	18	5	2	18	7	
	6	19	5	2	15	5	
	7	20	5	2	14	5	
	8	25	5	2	13	3	
	9	27	5	2	11	3	
56	1	3	5	4	8	19	
	2	4	4	3	8	18	
	3	5	4	3	7	18	
	4	6	3	3	6	17	
	5	7	3	3	5	17	
	6	11	2	3	5	17	
	7	12	1	3	4	16	
	8	14	1	3	2	16	
	9	29	1	3	2	15	
57	1	9	3	5	26	23	
	2	13	3	4	23	22	
	3	15	3	4	21	22	
	4	16	3	4	17	21	
	5	17	2	4	14	21	
	6	19	2	3	12	20	
	7	24	1	3	9	19	
	8	26	1	3	7	19	
	9	29	1	3	5	19	
58	1	1	3	5	15	13	
	2	3	3	4	14	13	
	3	6	3	3	12	13	
	4	8	3	3	12	12	
	5	15	2	2	10	12	
	6	19	2	2	10	11	
	7	22	2	2	8	12	
	8	25	2	1	8	11	
	9	29	2	1	6	11	
59	1	1	5	3	20	9	
	2	2	5	3	19	8	
	3	8	5	3	15	7	
	4	9	5	3	13	7	
	5	13	5	2	12	6	
	6	15	5	2	9	5	
	7	19	5	2	9	3	
	8	20	5	2	6	3	
	9	26	5	2	4	1	
60	1	7	4	4	25	29	
	2	9	4	3	23	27	
	3	12	4	3	20	26	
	4	15	4	3	20	25	
	5	16	3	2	16	24	
	6	19	3	2	16	22	
	7	20	3	2	12	20	
	8	23	3	1	12	19	
	9	27	3	1	9	18	
61	1	7	3	2	27	19	
	2	8	3	2	26	18	
	3	14	3	2	25	17	
	4	15	3	2	24	16	
	5	16	2	2	24	14	
	6	17	2	2	23	14	
	7	18	2	2	23	13	
	8	26	1	2	21	11	
	9	27	1	2	21	10	
62	1	4	3	5	9	19	
	2	7	3	4	8	17	
	3	8	3	3	8	17	
	4	11	2	3	8	16	
	5	16	2	2	8	13	
	6	17	2	2	8	12	
	7	23	1	2	8	9	
	8	27	1	1	8	7	
	9	30	1	1	8	6	
63	1	10	4	3	22	9	
	2	16	3	3	21	8	
	3	17	3	3	21	7	
	4	21	2	3	21	8	
	5	24	2	3	21	7	
	6	25	2	3	21	6	
	7	26	1	3	21	7	
	8	29	1	3	21	6	
	9	30	1	3	21	5	
64	1	4	4	3	1	25	
	2	9	3	3	1	22	
	3	10	3	3	1	21	
	4	12	3	3	1	19	
	5	20	3	3	1	16	
	6	21	2	3	1	13	
	7	22	2	3	1	12	
	8	25	2	3	1	10	
	9	29	2	3	1	7	
65	1	4	1	1	16	27	
	2	10	1	1	15	23	
	3	11	1	1	14	21	
	4	12	1	1	13	18	
	5	13	1	1	13	13	
	6	21	1	1	13	10	
	7	25	1	1	11	10	
	8	26	1	1	10	7	
	9	30	1	1	10	2	
66	1	2	4	1	28	26	
	2	11	3	1	27	24	
	3	12	3	1	24	23	
	4	13	3	1	20	22	
	5	15	3	1	20	18	
	6	18	3	1	15	18	
	7	20	3	1	15	15	
	8	21	3	1	12	12	
	9	26	3	1	10	11	
67	1	4	5	3	22	29	
	2	10	4	3	19	27	
	3	11	4	3	18	25	
	4	12	4	3	16	23	
	5	20	3	3	14	19	
	6	21	3	3	12	19	
	7	22	3	3	11	16	
	8	27	3	3	10	15	
	9	29	3	3	9	11	
68	1	3	5	5	25	25	
	2	5	4	5	25	22	
	3	13	4	5	25	20	
	4	14	4	5	24	18	
	5	18	4	5	24	17	
	6	21	3	5	23	12	
	7	22	3	5	23	11	
	8	24	3	5	22	8	
	9	25	3	5	22	6	
69	1	6	4	3	21	8	
	2	7	3	3	18	8	
	3	9	3	3	17	8	
	4	12	3	2	15	8	
	5	21	3	2	13	8	
	6	22	3	2	10	8	
	7	25	3	1	10	8	
	8	28	3	1	7	8	
	9	29	3	1	5	8	
70	1	1	3	1	7	27	
	2	6	2	1	6	26	
	3	9	2	1	6	24	
	4	10	2	1	6	23	
	5	11	2	1	5	23	
	6	19	2	1	5	20	
	7	20	2	1	5	19	
	8	21	2	1	4	17	
	9	26	2	1	4	16	
71	1	5	3	3	21	21	
	2	7	3	2	20	21	
	3	10	3	2	18	20	
	4	13	3	2	17	20	
	5	19	3	1	17	19	
	6	20	3	1	15	18	
	7	21	3	1	15	17	
	8	26	3	1	13	18	
	9	28	3	1	12	17	
72	1	4	5	4	18	29	
	2	11	5	3	16	27	
	3	12	5	3	16	26	
	4	18	5	3	15	27	
	5	19	5	2	14	26	
	6	20	5	2	12	25	
	7	21	5	1	11	25	
	8	27	5	1	11	24	
	9	30	5	1	10	24	
73	1	1	5	4	18	15	
	2	2	4	3	15	14	
	3	3	4	3	13	14	
	4	19	4	3	11	12	
	5	21	3	3	9	12	
	6	25	3	2	7	12	
	7	26	3	2	7	10	
	8	27	3	2	4	10	
	9	29	3	2	3	9	
74	1	10	3	4	22	27	
	2	12	3	3	22	25	
	3	13	3	3	22	23	
	4	18	3	3	22	21	
	5	19	3	3	22	18	
	6	20	3	3	22	17	
	7	25	3	3	22	15	
	8	26	3	3	22	12	
	9	28	3	3	22	11	
75	1	1	3	2	24	28	
	2	2	3	2	24	27	
	3	7	3	2	23	26	
	4	8	3	2	21	26	
	5	10	3	2	20	25	
	6	12	3	2	20	24	
	7	13	3	2	19	24	
	8	22	3	2	18	23	
	9	24	3	2	17	22	
76	1	2	5	5	20	3	
	2	3	4	4	20	3	
	3	4	4	4	19	3	
	4	5	4	3	19	3	
	5	14	4	3	19	2	
	6	17	4	3	18	2	
	7	20	4	3	18	1	
	8	23	4	2	17	2	
	9	27	4	2	17	1	
77	1	4	1	3	21	27	
	2	13	1	3	20	24	
	3	15	1	3	19	21	
	4	16	1	3	18	17	
	5	17	1	3	17	15	
	6	21	1	3	16	13	
	7	26	1	3	16	9	
	8	28	1	3	14	7	
	9	29	1	3	14	4	
78	1	5	4	2	29	22	
	2	6	3	2	29	20	
	3	10	3	2	29	19	
	4	18	3	2	29	18	
	5	21	2	1	29	14	
	6	25	2	1	28	14	
	7	26	2	1	28	10	
	8	27	1	1	28	9	
	9	30	1	1	28	6	
79	1	5	3	4	2	25	
	2	10	3	3	1	22	
	3	13	3	3	1	21	
	4	15	3	3	1	20	
	5	24	3	3	1	19	
	6	27	3	3	1	17	
	7	28	3	3	1	16	
	8	29	3	3	1	15	
	9	30	3	3	1	14	
80	1	8	5	5	15	20	
	2	9	4	4	15	18	
	3	12	4	4	15	17	
	4	16	4	3	14	15	
	5	18	4	3	14	11	
	6	20	4	3	14	10	
	7	22	4	2	14	6	
	8	23	4	2	13	3	
	9	28	4	2	13	2	
81	1	1	4	3	24	20	
	2	2	4	2	21	16	
	3	5	4	2	20	15	
	4	18	4	2	16	15	
	5	19	4	2	15	13	
	6	21	4	1	12	10	
	7	24	4	1	9	8	
	8	26	4	1	7	6	
	9	27	4	1	5	6	
82	1	2	3	5	18	23	
	2	7	3	4	17	21	
	3	11	3	3	16	20	
	4	15	3	3	16	19	
	5	20	3	3	14	14	
	6	21	3	2	14	12	
	7	25	3	1	13	9	
	8	26	3	1	12	7	
	9	30	3	1	11	5	
83	1	13	5	4	16	9	
	2	15	4	4	12	8	
	3	18	4	4	12	7	
	4	19	4	4	9	7	
	5	22	4	3	9	5	
	6	24	3	3	6	5	
	7	25	3	2	5	3	
	8	26	3	2	4	3	
	9	27	3	2	1	2	
84	1	6	1	5	1	18	
	2	13	1	5	1	17	
	3	14	1	5	1	14	
	4	19	1	5	1	12	
	5	20	1	5	1	11	
	6	21	1	5	1	10	
	7	22	1	5	1	9	
	8	29	1	5	1	8	
	9	30	1	5	1	6	
85	1	12	5	3	27	23	
	2	13	4	3	26	22	
	3	14	4	3	24	22	
	4	15	3	3	21	21	
	5	17	3	3	21	20	
	6	19	3	3	19	20	
	7	20	2	3	16	20	
	8	25	2	3	15	19	
	9	29	2	3	13	18	
86	1	4	5	4	23	26	
	2	5	4	4	19	25	
	3	7	4	4	15	24	
	4	11	4	3	13	23	
	5	12	3	3	12	23	
	6	19	3	3	9	23	
	7	20	2	3	5	22	
	8	21	2	2	5	21	
	9	28	2	2	2	21	
87	1	6	4	2	10	17	
	2	14	4	2	9	14	
	3	15	4	2	8	12	
	4	18	4	2	7	11	
	5	20	4	2	7	10	
	6	23	4	2	7	8	
	7	25	4	2	6	7	
	8	26	4	2	5	5	
	9	29	4	2	5	4	
88	1	2	1	2	5	19	
	2	7	1	2	5	17	
	3	8	1	2	5	15	
	4	10	1	2	5	14	
	5	19	1	1	5	14	
	6	21	1	1	5	12	
	7	22	1	1	5	11	
	8	25	1	1	5	9	
	9	27	1	1	5	7	
89	1	3	4	3	10	27	
	2	10	3	2	10	26	
	3	11	3	2	10	25	
	4	12	3	2	10	24	
	5	19	3	2	10	23	
	6	21	3	2	10	22	
	7	24	3	2	10	21	
	8	26	3	2	10	20	
	9	30	3	2	10	19	
90	1	2	4	1	29	19	
	2	5	4	1	29	18	
	3	12	4	1	29	15	
	4	16	4	1	29	14	
	5	18	4	1	29	13	
	6	19	4	1	28	11	
	7	20	4	1	28	10	
	8	21	4	1	28	7	
	9	28	4	1	28	6	
91	1	2	2	1	17	21	
	2	5	2	1	17	19	
	3	8	2	1	17	17	
	4	9	2	1	17	16	
	5	10	1	1	17	16	
	6	12	1	1	17	14	
	7	23	1	1	17	13	
	8	24	1	1	17	12	
	9	26	1	1	17	11	
92	1	6	1	4	27	23	
	2	7	1	4	27	21	
	3	10	1	3	25	20	
	4	11	1	3	25	17	
	5	12	1	3	23	15	
	6	14	1	2	22	13	
	7	19	1	2	21	11	
	8	23	1	1	21	8	
	9	25	1	1	20	7	
93	1	6	3	3	21	20	
	2	7	3	3	20	19	
	3	11	3	3	20	17	
	4	12	2	3	18	17	
	5	20	2	3	18	16	
	6	21	2	2	18	15	
	7	22	1	2	16	15	
	8	23	1	2	16	14	
	9	29	1	2	15	13	
94	1	3	3	4	14	29	
	2	8	3	4	12	29	
	3	10	3	4	12	28	
	4	13	3	3	11	29	
	5	14	3	3	8	29	
	6	16	2	3	7	29	
	7	26	2	3	7	28	
	8	27	2	2	4	29	
	9	28	2	2	3	29	
95	1	2	2	3	27	17	
	2	5	2	3	26	17	
	3	10	2	3	26	15	
	4	13	2	3	25	15	
	5	14	2	3	24	13	
	6	23	2	3	24	12	
	7	24	2	3	23	12	
	8	28	2	3	23	10	
	9	30	2	3	23	9	
96	1	8	3	1	28	25	
	2	10	3	1	24	20	
	3	18	3	1	23	20	
	4	21	3	1	22	17	
	5	23	3	1	19	15	
	6	26	3	1	18	12	
	7	27	3	1	18	10	
	8	28	3	1	15	8	
	9	29	3	1	13	5	
97	1	1	4	2	9	17	
	2	3	3	1	8	17	
	3	10	3	1	7	17	
	4	11	3	1	7	16	
	5	12	2	1	5	17	
	6	15	2	1	5	16	
	7	26	1	1	5	17	
	8	28	1	1	3	17	
	9	30	1	1	3	16	
98	1	1	5	3	14	23	
	2	2	4	3	13	21	
	3	3	3	3	12	18	
	4	8	3	3	11	15	
	5	9	3	3	10	15	
	6	10	2	3	9	12	
	7	15	2	3	7	7	
	8	16	1	3	7	4	
	9	26	1	3	6	2	
99	1	5	4	5	25	27	
	2	7	3	4	22	24	
	3	8	3	4	20	24	
	4	16	3	4	19	22	
	5	20	3	4	18	22	
	6	24	3	4	16	20	
	7	26	3	4	14	19	
	8	27	3	4	12	18	
	9	28	3	4	11	18	
100	1	11	4	2	20	12	
	2	15	3	2	18	10	
	3	16	3	2	18	9	
	4	17	3	2	16	9	
	5	18	2	1	15	7	
	6	19	2	1	14	6	
	7	20	1	1	13	5	
	8	22	1	1	13	3	
	9	29	1	1	12	1	
101	1	2	3	1	7	29	
	2	3	3	1	7	28	
	3	4	3	1	7	27	
	4	20	3	1	7	25	
	5	22	2	1	6	25	
	6	23	2	1	6	23	
	7	25	2	1	6	22	
	8	27	1	1	6	21	
	9	30	1	1	6	20	
102	1	0	0	0	0	0	
************************************************************************

 RESOURCE AVAILABILITIES 
	R 1	R 2	N 1	N 2
	32	32	1356	1315

************************************************************************
